qbf_easy_train/easy_4194_SAT.qdimacs
p cnf 25 60
a 1 12 6 0
e 2 3 4 5 7 8 9 10 11 13 14 15 16 17 18 19 20 21 22 23 24 25 0
-3 -1 0
-3 -2 0
1 2 3 0
5 -3 0
5 -4 0
3 4 -5 0
7 5 0
7 -6 0
-5 6 -7 0
10 8 0
10 9 0
-8 -9 -10 0
-12 11 0
-12 -2 0
-11 2 12 0
-10 -12 -13 0
10 12 -13 0
-10 12 13 0
10 -12 13 0
14 7 0
14 -13 0
-7 13 -14 0
16 15 0
16 -4 0
-15 4 -16 0
-17 5 0
-17 16 0
-5 -16 17 0
-18 -14 0
-18 17 0
14 -17 18 0
-19 -11 0
-19 4 0
11 -4 19 0
-20 18 0
-20 19 0
-18 -19 20 0
-15 2 -21 0
15 -2 -21 0
-15 -2 21 0
15 2 21 0
16 21 -22 0
-16 -21 -22 0
16 -21 22 0
-16 21 22 0
-23 -20 0
-23 22 0
20 -22 23 0
-24 3 0
-24 -9 0
-3 9 24 0
-25 -23 0
-25 -24 0
23 24 25 0
-22 3 -25 0
9 23 1 3 -8 22 0
10 -1 11 0
18 25 -8 -5 -15 12 11 1 0
24 -23 5 0
25 0
