sat_easy_train/easy_4194_SAT.dimacs
p cnf 67 198
1 2 -3 0
-1 -2 -3 0
1 -2 3 0
-1 2 3 0
4 5 -6 0
-4 -5 -6 0
4 -5 6 0
-4 5 6 0
7 6 0
7 -5 0
-6 5 -7 0
9 5 -10 0
-9 -5 -10 0
9 -5 10 0
-9 5 10 0
9 10 -11 0
-9 -10 -11 0
9 -10 11 0
-9 10 11 0
-12 -8 0
-12 -11 0
8 11 12 0
13 -7 0
13 -12 0
7 12 -13 0
3 -13 -14 0
-3 13 -14 0
3 13 14 0
-3 -13 14 0
-18 -16 0
-18 -17 0
16 17 18 0
19 18 0
19 -2 0
-18 2 -19 0
-20 -5 -21 0
20 5 -21 0
-20 5 21 0
20 -5 21 0
5 -21 -22 0
-5 21 -22 0
5 21 22 0
-5 -21 22 0
19 -22 -23 0
-19 22 -23 0
19 22 23 0
-19 -22 23 0
15 -23 -24 0
-15 23 -24 0
15 23 24 0
-15 -23 24 0
25 -1 -26 0
-25 1 -26 0
25 1 26 0
-25 -1 26 0
27 -26 0
27 20 0
26 -20 -27 0
-29 -8 0
-29 -28 0
8 28 29 0
-30 29 0
-30 16 0
-29 -16 30 0
-31 -27 0
-31 -30 0
27 30 31 0
24 31 -32 0
-24 -31 -32 0
24 -31 32 0
-24 31 32 0
33 2 0
33 -25 0
-2 25 -33 0
-5 34 -35 0
5 -34 -35 0
-5 -34 35 0
5 34 35 0
-36 15 0
-36 -10 0
-15 10 36 0
37 35 0
37 36 0
-35 -36 -37 0
-39 29 0
-39 38 0
-29 -38 39 0
-40 -37 0
-40 39 0
37 -39 40 0
33 40 -41 0
-33 -40 -41 0
33 -40 41 0
-33 40 41 0
20 8 -42 0
-20 -8 -42 0
20 -8 42 0
-20 8 42 0
-43 -23 0
-43 16 0
23 -16 43 0
-45 43 0
-45 -44 0
-43 44 45 0
46 42 0
46 -45 0
-42 45 -46 0
-47 41 0
-47 46 0
-41 -46 47 0
-48 -8 0
-48 26 0
8 -26 48 0
-16 25 -49 0
16 -25 -49 0
-16 -25 49 0
16 25 49 0
28 2 -50 0
-28 -2 -50 0
28 -2 50 0
-28 2 50 0
-52 -51 0
-52 -29 0
51 29 52 0
53 50 0
53 -52 0
-50 52 -53 0
54 1 0
54 -26 0
-1 26 -54 0
-55 54 0
-55 29 0
-54 -29 55 0
53 55 -56 0
-53 -55 -56 0
53 -55 56 0
-53 55 56 0
-9 57 0
9 57 0
-58 15 0
-58 -57 0
-15 57 58 0
59 21 0
59 58 0
-21 -58 -59 0
-60 9 0
-60 -54 0
-9 54 60 0
-61 -59 0
-61 -60 0
59 60 61 0
-62 56 0
-62 -61 0
-56 61 62 0
-63 -49 0
-63 -62 0
49 62 63 0
-64 48 0
-64 63 0
-48 -63 64 0
47 -64 -65 0
-47 64 -65 0
47 64 65 0
-47 -64 65 0
-66 -32 0
-66 -65 0
32 65 66 0
14 66 -67 0
-14 -66 -67 0
14 -66 67 0
-14 66 67 0
47 -35 3 6 10 44 0
65 -17 0
-43 -19 -51 -1 48 3 0
19 12 -24 27 -44 -13 0
-18 43 0
-7 1 30 6 34 0
-35 1 62 0
-50 25 -27 8 0
24 -16 -51 -12 0
61 -29 0
-1 -39 -42 0
-67 65 9 54 47 6 0
57 58 -13 0
-64 -30 32 7 17 0
30 -63 -22 58 -38 -33 0
51 -20 55 35 0
35 8 -58 0
-36 1 -41 -23 0
52 57 65 -39 37 0
-62 3 45 1 51 -12 0
-28 -59 44 -57 0
-13 -49 -32 28 17 -52 0
2 21 -65 67 -49 -63 0
20 19 6 0
-2 13 7 0
-40 57 25 0
67 0
